15
1 0 7
2 1 43
3 1 82
4 2 36
4 3 4
5 1 1
5 2 64
5 4 55
6 1 51
6 3 7
6 4 40
7 2 97
7 3 63
7 4 99
8 2 49
8 6 100
8 7 82
9 1 48
9 2 39
9 5 55
9 8 21
10 0 75
10 1 43
10 2 73
10 5 95
10 6 1
10 7 8
10 8 90
11 1 85
11 5 46
11 6 64
11 7 81
11 8 43
11 9 68
12 0 31
12 3 9
12 8 90
12 9 19
12 10 88
13 1 97
13 2 64
13 3 86
13 4 40
13 5 89
13 9 98
13 11 26
14 0 75
14 1 1
14 3 85
14 4 16
14 10 85
14 11 8
14 13 50
